197 25
76 3
23 105
26 68
196 69
151 2
142 17
141 64
137 116
83 12
37 44
195 18
19 105
62 177
112 161
131 5
98 181
74 176
56 147
14 107
405 193
501 109
449 52
433 150
448 58
535 36
435 96
503 141
504 77
407 177
403 74
488 60
586 170
480 117
493 84
417 127
408 66
450 180
556 56
404 131
141 556
4 414
25 409
173 492
43 560
15 429
50 529
127 415
1 475
131 432
12 430
166 440
100 411
23 419
194 491
35 440
183 475
167 562
52 477
95 416
578 420
416 475
450 515
433 511
559 404
448 503
596 549
425 452
480 419
532 515
457 414
445 584
513 583
596 545
519 579
445 580
593 574
449 531
485 474
545 410
